120
1000
200
199
199
199
198
198
198
197
197
197
196
196
196
196
195
195
195
195
195
194
193
193
193
193
193
193
192
192
192
191
190
190
190
190
189
189
188
187
186
185
185
185
184
184
184
184
183
181
180
180
180
180
180
179
179
179
179
178
178
176
175
174
174
174
173
172
170
170
170
167
167
166
166
165
164
164
164
163
162
162
162
162
162
161
161
161
161
161
160
160
160
159
159
159
158
158
157
157
156
155
155
155
154
154
154
154
153
153
153
152
152
152
151
151
151
150
150
150
150
150
